25
92.8 0.46
75.1 46.38
69.89 43.19
77.78 25.86
98.6 44.88
98.6 48.94
98.6 48.13
98.6 47.32
98.6 46.5
98.6 45.69
15.43 22.33
14.6 24.87
12.44 26.44
9.78 26.44
7.62 24.87
6.79 22.33
7.62 19.79
9.78 18.22
12.44 18.22
14.6 19.79
90.84 0.35
92.19 8.48
91.6 11.08
89.93 13.17
87.53 14.33
